(set-logic QF_S)
(declare-fun _var_0xINPUT_109226_() String)
(declare-fun __woorpje_diseq_pref0_() String)
(declare-fun __woorpje_diseq_suf_l0_() String)
(declare-fun __woorpje_diseq_suf_r0_() String)
(assert (=(str.++  "Rji1FP3tvB" "")(str.++ __woorpje_diseq_pref0_  "P" __woorpje_diseq_suf_l0_  "")) )
(assert (=(str.++ _var_0xINPUT_109226_  "")(str.++ __woorpje_diseq_pref0_  "B" __woorpje_diseq_suf_r0_  "")) )
(check-sat)
